113 162 128 41 92 120 146 36 20 53 195 165 150 29 181 1 61 63 58 137 96 52 139 183 28 93 114 14 59 45 117 81 15 147 123 175 196 38 13 78 115 47 88 182 161 169 91 33 168 163 124 42 170 51 27 166 188 184 107 62 18 44 121 5 82 84 151 122 46 86 30 60 67 8 135 89 127 55 105 68 6 17 186 132 171 198 22 10 94 90 24 131 35 99 48 77 143 110 37 185 118 101 102 66 31 97 190 100 40 49 141 3 178 138 172 174 2 65 75 111 19 176 193 25 12 133 64 26 85 104 119 126 109 194 76 158 73 192 74 167 69 54 160 191 112 136 149 173 79 164 56 154 116 145 39 50 148 71 32 9 87 129 11 159 72 57 187 108 80 180 142 152 140 144 34 103 134 98 125 179 156 0 106 16 70 157 95 199 155 189 7 23 197 21 153 43 4 83 130 177 

